# =========================================================
# NVT production — LONG run (500 000 steps / 250 ps)
# System: caffeine + SPC/E water
# Starting point: NPT-equilibrated structure (npt_eq_final.data)
#
# This script replaces in.nvt_prod_long and adds:
#   - MSD for water oxygens  (-> msd_waterO.dat)
#   - MSD for caffeine       (-> msd_caffeine.dat)
#   - Averaged thermo output (-> thermo_avg_prod_long.dat)
#
# Required for: items 1.1.1, 1.1.3, Fig. 6 (RBEF revision)
# =========================================================

# ---------------------------------------------------------
# 1. Common parameters (pair styles, kspace, bonds, etc.)
# ---------------------------------------------------------
include         in.common

# ---------------------------------------------------------
# 2. Load NPT-equilibrated structure
# ---------------------------------------------------------
read_data       npt_eq_final.data

# ---------------------------------------------------------
# 3. Atom groups
# ---------------------------------------------------------
group           caffeine  molecule 1
group           water     type 25 26
group           waterO    type 25
group           waterH    type 26
group           caffO     type 13 14
group           caffN     type 2 4 8 11

# ---------------------------------------------------------
# 4. SHAKE constraints (SPC/E rigid geometry)
#    bond type 26 = O-H | angle type 44 = H-O-H
# ---------------------------------------------------------
fix             fxShake water shake 1.0e-4 200 0 b 26 a 44

# ---------------------------------------------------------
# 5. Time step and reset
# ---------------------------------------------------------
reset_timestep  0
timestep        0.5

# ---------------------------------------------------------
# 6. Thermostat — Nose-Hoover NVT (Tdamp = 200 fs)
# ---------------------------------------------------------
fix             fxNVT all nvt temp 298.0 298.0 200.0

# ---------------------------------------------------------
# 7. Thermodynamic output (every 100 steps = 0.05 ps)
# ---------------------------------------------------------
thermo          100
thermo_style    custom step temp pe ke etotal press density vol
thermo_modify   flush yes

# ---------------------------------------------------------
# 8. Trajectory dump (every 1000 steps = 0.5 ps)
# ---------------------------------------------------------
dump            d1 all custom 1000 nvt_prod_long.lammpstrj &
                id mol type q x y z vx vy vz
dump_modify     d1 sort id

# ---------------------------------------------------------
# 9. Restart files (every 50 000 steps)
# ---------------------------------------------------------
restart         50000 nvt_prod_long.restart1 nvt_prod_long.restart2

# ---------------------------------------------------------
# 10. MSD — water oxygens
#     com yes = removes center-of-mass drift before computing MSD
#     Output: step  MSD_waterO (A^2)
#     Averaged over windows of 1000 steps (every 100 steps, 10 samples)
# ---------------------------------------------------------
compute         cMSDwatO waterO msd com yes
fix             fxMSDwatO waterO ave/time 100 10 1000 &
                c_cMSDwatO[4] file msd_waterO.dat title1 "# Step MSD_waterO(A^2)"

# ---------------------------------------------------------
# 11. MSD — caffeine (center of mass)
# ---------------------------------------------------------
compute         cMSDcaf caffeine msd com yes
fix             fxMSDcaf caffeine ave/time 100 10 1000 &
                c_cMSDcaf[4] file msd_caffeine.dat title1 "# Step MSD_caffeine(A^2)"

# ---------------------------------------------------------
# 12. Averaged thermodynamic variables
#     Smoothed over windows of 1000 steps for comparison tables
# ---------------------------------------------------------
variable        vTemp   equal temp
variable        vPress  equal press
variable        vDens   equal density
variable        vVol    equal vol
variable        vPE     equal pe
variable        vKE     equal ke
variable        vEtot   equal etotal

fix             fxAvg all ave/time 100 10 1000 &
                v_vTemp v_vPress v_vDens v_vPE v_vKE v_vEtot v_vVol &
                file thermo_avg_prod_long.dat mode scalar

# ---------------------------------------------------------
# 13. Run: 500 000 steps = 250 ps
# ---------------------------------------------------------
run             1000000

# ---------------------------------------------------------
# 14. Save final structure
# ---------------------------------------------------------
write_data      nvt_prod_long_final.data
